2.lp
min: X1 + Y1 + X2 + Y2 + X3 + Y3 + X4 + Y4 + X5 + Y5;

X1 >= XD1 - 2;
X1 >=  - XD1 + 2;
Y1 >= YD1 - 8;
Y1 >=  - YD1 + 8;

X2 >= XD1 - 10;
X2 >=  - XD1 + 10;
Y2 >= YD1 - 7;
Y2 >= -YD1 + 7;

X3 >= XD1 - 1;
X3 >=  - XD1 + 1;
Y3 >= YD1 - 3;
Y3 >=  - YD1 + 3;

X4 >= XD1 - 6;
X4 >=  - XD1 + 6;
Y4 >= YD1 - 4;
Y4 >=  - YD1 + 4;

X5 >= XD1 - 8;
X5 >=  - XD1 + 8;
Y5 >= YD1 - 2;
Y5 >=  - YD1 + 2;
