projeto3/2
As atividades que decorrem em paralelo sao 1,7,10
